NAME : zqloutput/eax-hard-simple-rescaleandround/50-3.tsp
TYPE : TSP
DIMENSION : 50
EDGE_WEIGHT_TYPE : EUC_2D
NODE_COORD_SECTION
1 373438 65454
2 701677 591452
3 158372 709567
4 834297 507535
5 50468 669224
6 861413 886485
7 350590 194615
8 257906 616051
9 979216 165501
10 152363 966862
11 209326 283286
12 934414 60061
13 710938 378738
14 180289 821051
15 779070 545689
16 893114 228502
17 237976 871405
18 34549 576959
19 949001 667272
20 316361 890325
21 373969 12496
22 300825 474107
23 458518 388250
24 163718 422332
25 291234 785514
26 545821 428606
27 740689 472173
28 147408 907286
29 769688 689099
30 994505 81524
31 262431 940923
32 146802 177622
33 326809 401573
34 695180 317635
35 964236 902891
36 246584 675706
37 795816 980166
38 49467 391301
39 469958 444749
40 545201 17289
41 147258 568723
42 518665 963499
43 251188 356332
44 520072 992448
45 411022 827470
46 122503 927743
47 499640 167507
48 535171 980015
49 310075 961728
50 343090 50801
EOF
